NAME 
ROWS
 N  OBJ
 L  R0      
 L  R1      
 L  R2      
 E  R3      
 E  R4      
 E  R5      
 E  R6      
 E  R7      
 E  R8      
 E  R9      
 E  R10     
 E  R11     
 E  R12     
 E  R13     
 E  R14     
 E  R15     
 E  R16     
 E  R17     
COLUMNS
    MARKER    'MARKER'                 'INTORG'
    I0(11)    OBJ       -108
    I0(11)    R0        192
    I0(11)    R1        -17
    I0(11)    R2        -122
    I0(11)    R3        16
    I0(11)    R4        6
    I0(11)    R5        5
    I0(11)    R6        14
    I0(11)    R7        4
    I0(11)    R8        6
    I0(11)    R9        16
    I0(11)    R17       1
    I1(9)     OBJ       190
    I1(9)     R0        -26
    I1(9)     R1        -38
    I1(9)     R2        -182
    I1(9)     R3        7
    I1(9)     R5        3
    I1(9)     R6        10
    I1(9)     R7        10
    I1(9)     R8        5
    I1(9)     R17       1
    I2(8)     OBJ       111
    I2(8)     R0        172
    I2(8)     R1        -88
    I2(8)     R2        -91
    I2(8)     R3        7
    I2(8)     R4        6
    I2(8)     R6        8
    I2(8)     R7        8
    I2(8)     R17       1
    I3(8)     OBJ       131
    I3(8)     R0        29
    I3(8)     R1        85
    I3(8)     R2        84
    I3(8)     R5        19
    I3(8)     R6        16
    I3(8)     R8        11
    I3(8)     R9        17
    I3(8)     R17       1
    I4(9)     OBJ       9
    I4(9)     R0        65
    I4(9)     R1        -54
    I4(9)     R2        -8
    I4(9)     R3        10
    I4(9)     R4        7
    I4(9)     R5        -1
    I4(9)     R7        15
    I4(9)     R8        12
    I4(9)     R17       1
    I5(11)    OBJ       -17
    I5(11)    R0        -137
    I5(11)    R1        -60
    I5(11)    R2        80
    I5(11)    R3        12
    I5(11)    R4        1
    I5(11)    R5        15
    I5(11)    R6        5
    I5(11)    R7        7
    I5(11)    R8        4
    I5(11)    R9        17
    I5(11)    R17       1
    I6(7)     OBJ       6
    I6(7)     R0        161
    I6(7)     R1        99
    I6(7)     R2        136
    I6(7)     R3        19
    I6(7)     R4        16
    I6(7)     R5        16
    I6(7)     R17       1
    MARKER    'MARKER'                 'INTEND'
    C7(15)    OBJ       9
    C7(15)    R0        7
    C7(15)    R1        2
    C7(15)    R2        4
    C7(15)    R3        16
    C7(15)    R4        14
    C7(15)    R5        -1
    C7(15)    R7        3
    C7(15)    R8        5
    C7(15)    R9        15
    C7(15)    R10       1
    C7(15)    R11       9
    C7(15)    R12       14
    C7(15)    R13       9
    C7(15)    R14       15
    C7(15)    R15       11
    C8(12)    OBJ       -2
    C8(12)    R1        7
    C8(12)    R2        9
    C8(12)    R3        11
    C8(12)    R4        7
    C8(12)    R5        14
    C8(12)    R6        11
    C8(12)    R8        19
    C8(12)    R10       1
    C8(12)    R11       10
    C8(12)    R12       -1
    C8(12)    R14       11
    C8(12)    R15       10
    C9(14)    OBJ       -2
    C9(14)    R0        2
    C9(14)    R1        -5
    C9(14)    R2        4
    C9(14)    R3        9
    C9(14)    R4        11
    C9(14)    R5        -1
    C9(14)    R6        7
    C9(14)    R7        14
    C9(14)    R8        13
    C9(14)    R11       14
    C9(14)    R13       15
    C9(14)    R14       12
    C9(14)    R15       5
    C9(14)    R16       16
    C10(14)   OBJ       3
    C10(14)   R0        -4
    C10(14)   R1        6
    C10(14)   R2        -7
    C10(14)   R3        10
    C10(14)   R4        3
    C10(14)   R5        11
    C10(14)   R6        15
    C10(14)   R7        1
    C10(14)   R8        2
    C10(14)   R9        5
    C10(14)   R10       1
    C10(14)   R12       11
    C10(14)   R14       9
    C10(14)   R16       18
    C11(15)   OBJ       -1
    C11(15)   R0        9
    C11(15)   R1        -2
    C11(15)   R3        9
    C11(15)   R4        13
    C11(15)   R5        1
    C11(15)   R7        2
    C11(15)   R8        19
    C11(15)   R9        2
    C11(15)   R10       17
    C11(15)   R11       9
    C11(15)   R12       13
    C11(15)   R13       2
    C11(15)   R14       11
    C11(15)   R15       5
    C11(15)   R16       12
    C12(14)   OBJ       -7
    C12(14)   R0        6
    C12(14)   R1        6
    C12(14)   R2        7
    C12(14)   R4        13
    C12(14)   R5        5
    C12(14)   R6        16
    C12(14)   R7        18
    C12(14)   R8        14
    C12(14)   R9        7
    C12(14)   R10       19
    C12(14)   R11       3
    C12(14)   R12       16
    C12(14)   R15       18
    C12(14)   R16       11
    C13(15)   OBJ       4
    C13(15)   R0        2
    C13(15)   R1        -6
    C13(15)   R2        -2
    C13(15)   R3        19
    C13(15)   R4        6
    C13(15)   R5        19
    C13(15)   R6        19
    C13(15)   R7        7
    C13(15)   R8        13
    C13(15)   R10       9
    C13(15)   R11       2
    C13(15)   R12       17
    C13(15)   R13       19
    C13(15)   R14       11
    C13(15)   R15       1
    C14(16)   OBJ       -8
    C14(16)   R0        4
    C14(16)   R1        6
    C14(16)   R2        4
    C14(16)   R3        13
    C14(16)   R5        18
    C14(16)   R6        17
    C14(16)   R7        14
    C14(16)   R8        17
    C14(16)   R9        14
    C14(16)   R10       9
    C14(16)   R11       16
    C14(16)   R12       8
    C14(16)   R13       15
    C14(16)   R14       4
    C14(16)   R15       -1
    C14(16)   R16       7
    C15(1)    R3        1
    C16(1)    R4        1
    C17(1)    R5        1
    C18(1)    R6        1
    C19(1)    R7        1
    C20(1)    R8        1
    C21(1)    R9        1
    C22(1)    R10       1
    C23(1)    R11       1
    C24(1)    R12       1
    C25(1)    R13       1
    C26(1)    R14       1
    C27(1)    R15       1
    C28(1)    R16       1
    C29(1)    R17       1
RHS
    RHS1      R0        7.1950181629475850e+01
    RHS1      R1        -6.3593668915412565e+01
    RHS1      R2        -3.0225739491437487e+01
    RHS1      R3        66
    RHS1      R4        73
    RHS1      R5        71
    RHS1      R6        60
    RHS1      R7        68
    RHS1      R8        62
    RHS1      R9        64
    RHS1      R10       54
    RHS1      R11       62
    RHS1      R12       78
    RHS1      R13       85
    RHS1      R14       94
    RHS1      R15       58
    RHS1      R16       59
    RHS1      R17       2
BOUNDS
 UP BND1      I0(11)    1
 UP BND1      I1(9)     1
 UP BND1      I2(8)     1
 UP BND1      I3(8)     1
 UP BND1      I4(9)     1
 UP BND1      I5(11)    1
 UP BND1      I6(7)     1
ENDATA
